certificates/rado_a10_c104_N27.cnf
c Rad2 upper bound instance: x1 + 10*x2 - x3 = 104, interval [1,27]
p cnf 27 144
1 7 11 0
-1 -7 -11 0
1 12 17 0
-1 -12 -17 0
1 13 27 0
-1 -13 -27 0
2 8 11 0
-2 -8 -11 0
2 12 18 0
-2 -12 -18 0
3 9 11 0
-3 -9 -11 0
3 12 19 0
-3 -12 -19 0
4 10 11 0
-4 -10 -11 0
4 12 20 0
-4 -12 -20 0
1 5 10 0
-1 -5 -10 0
5 11 0
-5 -11 0
5 12 21 0
-5 -12 -21 0
2 6 10 0
-2 -6 -10 0
6 11 12 0
-6 -11 -12 0
6 12 22 0
-6 -12 -22 0
3 7 10 0
-3 -7 -10 0
7 11 13 0
-7 -11 -13 0
7 12 23 0
-7 -12 -23 0
4 8 10 0
-4 -8 -10 0
8 11 14 0
-8 -11 -14 0
8 12 24 0
-8 -12 -24 0
5 9 10 0
-5 -9 -10 0
9 11 15 0
-9 -11 -15 0
9 12 25 0
-9 -12 -25 0
6 10 0
-6 -10 0
10 11 16 0
-10 -11 -16 0
10 12 26 0
-10 -12 -26 0
7 10 11 0
-7 -10 -11 0
11 17 0
-11 -17 0
11 12 27 0
-11 -12 -27 0
8 10 12 0
-8 -10 -12 0
11 12 18 0
-11 -12 -18 0
9 10 13 0
-9 -10 -13 0
11 13 19 0
-11 -13 -19 0
10 14 0
-10 -14 0
11 14 20 0
-11 -14 -20 0
1 9 15 0
-1 -9 -15 0
10 11 15 0
-10 -11 -15 0
11 15 21 0
-11 -15 -21 0
2 9 16 0
-2 -9 -16 0
10 12 16 0
-10 -12 -16 0
11 16 22 0
-11 -16 -22 0
3 9 17 0
-3 -9 -17 0
10 13 17 0
-10 -13 -17 0
11 17 23 0
-11 -17 -23 0
4 9 18 0
-4 -9 -18 0
10 14 18 0
-10 -14 -18 0
11 18 24 0
-11 -18 -24 0
5 9 19 0
-5 -9 -19 0
10 15 19 0
-10 -15 -19 0
11 19 25 0
-11 -19 -25 0
6 9 20 0
-6 -9 -20 0
10 16 20 0
-10 -16 -20 0
11 20 26 0
-11 -20 -26 0
7 9 21 0
-7 -9 -21 0
10 17 21 0
-10 -17 -21 0
11 21 27 0
-11 -21 -27 0
8 9 22 0
-8 -9 -22 0
10 18 22 0
-10 -18 -22 0
9 23 0
-9 -23 0
10 19 23 0
-10 -19 -23 0
9 10 24 0
-9 -10 -24 0
10 20 24 0
-10 -20 -24 0
1 8 25 0
-1 -8 -25 0
9 11 25 0
-9 -11 -25 0
10 21 25 0
-10 -21 -25 0
2 8 26 0
-2 -8 -26 0
9 12 26 0
-9 -12 -26 0
10 22 26 0
-10 -22 -26 0
3 8 27 0
-3 -8 -27 0
9 13 27 0
-9 -13 -27 0
10 23 27 0
-10 -23 -27 0
