certificates/rado_a10_c104_N27.drat
-23 -27 0
11 -27 0
-7 -11 0
-27 0
23 -11 0
-11 0
5 0
17 0
12 0
21 0
-1 0
0
